50, 125049
3, 5000
35, 5003
15, 5004
8, 5001
6, 5004
29, 5000
26, 5004
8, 5000
49, 5002
37, 5003
40, 5002
43, 5001
48, 5000
19, 5000
3, 5003
14, 5001
41, 5003
3, 5004
35, 5001
3, 5003
48, 5003
27, 5000
34, 5002
23, 5000
39, 5003
25, 5000
37, 5001
27, 5000
36, 5001
8, 5002
7, 5003
35, 5002
30, 5003
17, 5000
36, 5004
9, 5003
19, 5004
21, 5002
6, 5003
36, 5000
30, 5004
17, 5004
7, 5002
12, 5000
46, 5002
7, 5002
45, 5002
12, 5002
20, 5003
25, 5003
